param set_len = 26;
param target = 80027371;
param values := [0] 5664665 [1] 2480830 [2] 2165945 [3] 8112216 [4] 5842628 [5] 4120690 [6] 6806862 [7] 2405110 [8] 7180418 [9] 8134331 [10] 5744476 [11] 4419314 [12] 4022875 [13] 6760600 [14] 7972665 [15] 168775 [16] 7647312 [17] 869990 [18] 6247004 [19] 3942695 [20] 7978670 [21] 4291561 [22] 2726824 [23] 233229 [24] 5808129 [25] 53956 ;
